nK = 1404;
nT = 6;
nI = 14;
L = 35;
TT = 349;
np = 1;
nc = 3;
b = [47, 45, 61, 26, 22, 68, 37, 44, 38, 70, 34, 59, 22, 23];
d = [120, 104, 122, 87, 135, 103, 62, 101, 126, 109, 76, 141, 53, 150];
m = [2, 1, 2.3, 2.2, 1, 1.1, 1.4, 1, 2.2, 2.3, 2.3, 1.6, 1.9, 2];
pt = [0.24, 0.27, 0.3, 0.25, 0.28, 0.33];
st = [12, 11.07, 13.8, 12.5, 12.88, 14.52];
arc = {<1, 0, 1, 1, 0, 0, 0, [1, 1, 1, 1, 1, 1]>, <2, 1, 2, 1, 0, 0, 0, [1, 1, 1, 1, 1, 1]>, <3, 2, 3, 1, 0, 0, 0, [1, 1, 1, 1, 1, 1]>, <4, 3, 4, 1, 0, 0, 0, [1, 1, 1, 1, 1, 1]>, <5, 4, 5, 1, 0, 0, 0, [1, 1, 1, 1, 1, 1]>, <6, 5, 6, 1, 0, 0, 0, [1, 1, 1, 1, 1, 1]>, <7, 6, 7, 1, 0, 0, 0, [1, 1, 1, 1, 1, 1]>, <8, 7, 8, 1, 0, 0, 0, [1, 1, 1, 1, 1, 1]>, <9, 8, 9, 1, 0, 0, 0, [1, 1, 1, 1, 1, 1]>, <10, 9, 10, 1, 0, 0, 0, [1, 1, 1, 1, 1, 1]>, <11, 10, 11, 1, 0, 0, 0, [1, 1, 1, 1, 1, 1]>, <12, 11, 12, 1, 0, 0, 0, [1, 1, 1, 1, 1, 1]>, <13, 12, 13, 1, 0, 0, 0, [1, 1, 1, 1, 1, 1]>, <14, 13, 14, 1, 0, 0, 0, [1, 1, 1, 1, 1, 1]>, <15, 14, 15, 1, 0, 0, 0, [1, 1, 1, 1, 1, 1]>, <16, 15, 16, 1, 0, 0, 0, [1, 1, 1, 1, 1, 1]>, <17, 16, 17, 1, 0, 0, 0, [1, 1, 1, 1, 1, 1]>, <18, 17, 18, 1, 0, 0, 0, [1, 1, 1, 1, 1, 1]>, <19, 18, 19, 1, 0, 0, 0, [1, 1, 1, 1, 1, 1]>, <20, 19, 20, 1, 0, 0, 0, [1, 1, 1, 1, 1, 1]>, <21, 20, 21, 1, 0, 0, 0, [1, 1, 1, 1, 1, 1]>, <22, 21, 22, 1, 0, 0, 0, [1, 1, 1, 1, 1, 1]>, <23, 22, 23, 1, 0, 0, 0, [1, 1, 1, 1, 1, 1]>, <24, 23, 24, 1, 0, 0, 0, [1, 1, 1, 1, 1, 1]>, <25, 24, 25, 1, 0, 0, 0, [1, 1, 1, 1, 1, 1]>, <26, 25, 26, 1, 0, 0, 0, [1, 1, 1, 1, 1, 1]>, <27, 26, 27, 1, 0, 0, 0, [1, 1, 1, 1, 1, 1]>, <28, 27, 28, 1, 0, 0, 0, [1, 1, 1, 1, 1, 1]>, <29, 28, 29, 1, 0, 0, 0, [1, 1, 1, 1, 1, 1]>, <30, 29, 30, 1, 0, 0, 0, [1, 1, 1, 1, 1, 1]>, <31, 30, 31, 1, 0, 0, 0, [1, 1, 1, 1, 1, 1]>, <32, 31, 32, 1, 0, 0, 0, [1, 1, 1, 1, 1, 1]>, <33, 32, 33, 1, 0, 0, 0, [1, 1, 1, 1, 1, 1]>, <34, 33, 34, 1, 0, 0, 0, [1, 1, 1, 1, 1, 1]>, <35, 34, 35, 1, 0, 0, 0, [1, 1, 1, 1, 1, 1]>, <36, 0, 17, 17, 1, 0, 0, [0, 0, 1, 1, 0, 0]>, <37, 1, 18, 17, 1, 0, 0, [0, 0, 1, 1, 0, 0]>, <38, 2, 19, 17, 1, 0, 0, [0, 0, 1, 1, 0, 0]>, <39, 3, 20, 17, 1, 0, 0, [0, 0, 1, 1, 0, 0]>, <40, 4, 21, 17, 1, 0, 0, [0, 0, 1, 1, 0, 0]>, <41, 5, 22, 17, 1, 0, 0, [0, 0, 1, 1, 0, 0]>, <42, 6, 23, 17, 1, 0, 0, [0, 0, 1, 1, 0, 0]>, <43, 9, 26, 17, 1, 0, 0, [0, 0, 1, 1, 0, 0]>, <44, 10, 27, 17, 1, 0, 0, [0, 0, 1, 1, 0, 0]>, <45, 11, 28, 17, 1, 0, 0, [0, 0, 1, 1, 0, 0]>, <46, 12, 29, 17, 1, 0, 0, [0, 0, 1, 1, 0, 0]>, <47, 13, 30, 17, 1, 0, 0, [0, 0, 1, 1, 0, 0]>, <48, 14, 31, 17, 1, 0, 0, [0, 0, 1, 1, 0, 0]>, <49, 15, 32, 17, 1, 0, 0, [0, 0, 1, 1, 0, 0]>, <50, 16, 33, 17, 1, 0, 0, [0, 0, 1, 1, 0, 0]>, <51, 17, 34, 17, 1, 0, 0, [0, 0, 1, 1, 0, 0]>, <52, 18, 35, 17, 1, 0, 0, [0, 0, 1, 1, 0, 0]>, <53, 0, 18, 18, 2, 0, 1, [0, 0, 1, 1, 0, 0]>, <54, 1, 19, 18, 2, 0, 1, [0, 0, 1, 1, 0, 0]>, <55, 2, 20, 18, 2, 0, 1, [0, 0, 1, 1, 0, 0]>, <56, 3, 21, 18, 2, 0, 1, [0, 0, 1, 1, 0, 0]>, <57, 4, 22, 18, 2, 0, 1, [0, 0, 1, 1, 0, 0]>, <58, 5, 23, 18, 2, 0, 1, [0, 0, 1, 1, 0, 0]>, <59, 6, 24, 18, 2, 0, 1, [0, 0, 1, 1, 0, 0]>, <60, 8, 26, 18, 2, 0, 1, [0, 0, 1, 1, 0, 0]>, <61, 9, 27, 18, 2, 0, 1, [0, 0, 1, 1, 0, 0]>, <62, 10, 28, 18, 2, 0, 1, [0, 0, 1, 1, 0, 0]>, <63, 11, 29, 18, 2, 0, 1, [0, 0, 1, 1, 0, 0]>, <64, 12, 30, 18, 2, 0, 1, [0, 0, 1, 1, 0, 0]>, <65, 13, 31, 18, 2, 0, 1, [0, 0, 1, 1, 0, 0]>, <66, 14, 32, 18, 2, 0, 1, [0, 0, 1, 1, 0, 0]>, <67, 15, 33, 18, 2, 0, 1, [0, 0, 1, 1, 0, 0]>, <68, 16, 34, 18, 2, 0, 1, [0, 0, 1, 1, 0, 0]>, <69, 17, 35, 18, 2, 0, 1, [0, 0, 1, 1, 0, 0]>, <70, 3, 17, 14, 3, 0, 0, [0, 1, 1, 0, 0, 0]>, <71, 4, 18, 14, 3, 0, 0, [0, 1, 1, 0, 0, 0]>, <72, 5, 19, 14, 3, 0, 0, [0, 1, 1, 0, 0, 0]>, <73, 6, 20, 14, 3, 0, 0, [0, 1, 1, 0, 0, 0]>, <74, 12, 26, 14, 3, 0, 0, [0, 1, 1, 0, 0, 0]>, <75, 13, 27, 14, 3, 0, 0, [0, 1, 1, 0, 0, 0]>, <76, 14, 28, 14, 3, 0, 0, [0, 1, 1, 0, 0, 0]>, <77, 15, 29, 14, 3, 0, 0, [0, 1, 1, 0, 0, 0]>, <78, 17, 31, 14, 3, 0, 0, [0, 1, 1, 0, 0, 0]>, <79, 18, 32, 14, 3, 0, 0, [0, 1, 1, 0, 0, 0]>, <80, 19, 33, 14, 3, 0, 0, [0, 1, 1, 0, 0, 0]>, <81, 20, 34, 14, 3, 0, 0, [0, 1, 1, 0, 0, 0]>, <82, 21, 35, 14, 3, 0, 0, [0, 1, 1, 0, 0, 0]>, <83, 4, 17, 13, 4, 1, 0, [0, 0, 1, 1, 0, 0]>, <84, 5, 18, 13, 4, 1, 0, [0, 0, 1, 1, 0, 0]>, <85, 6, 19, 13, 4, 1, 0, [0, 0, 1, 1, 0, 0]>, <86, 13, 26, 13, 4, 1, 0, [0, 0, 1, 1, 0, 0]>, <87, 14, 27, 13, 4, 1, 0, [0, 0, 1, 1, 0, 0]>, <88, 15, 28, 13, 4, 1, 0, [0, 0, 1, 1, 0, 0]>, <89, 18, 31, 13, 4, 1, 0, [0, 0, 1, 1, 0, 0]>, <90, 19, 32, 13, 4, 1, 0, [0, 0, 1, 1, 0, 0]>, <91, 20, 33, 13, 4, 1, 0, [0, 0, 1, 1, 0, 0]>, <92, 21, 34, 13, 4, 1, 0, [0, 0, 1, 1, 0, 0]>, <93, 22, 35, 13, 4, 1, 0, [0, 0, 1, 1, 0, 0]>, <94, 3, 17, 14, 5, 0, 0, [0, 0, 0, 1, 1, 0]>, <95, 4, 18, 14, 5, 0, 0, [0, 0, 0, 1, 1, 0]>, <96, 5, 19, 14, 5, 0, 0, [0, 0, 0, 1, 1, 0]>, <97, 6, 20, 14, 5, 0, 0, [0, 0, 0, 1, 1, 0]>, <98, 12, 26, 14, 5, 0, 0, [0, 0, 0, 1, 1, 0]>, <99, 13, 27, 14, 5, 0, 0, [0, 0, 0, 1, 1, 0]>, <100, 14, 28, 14, 5, 0, 0, [0, 0, 0, 1, 1, 0]>, <101, 15, 29, 14, 5, 0, 0, [0, 0, 0, 1, 1, 0]>, <102, 17, 31, 14, 5, 0, 0, [0, 0, 0, 1, 1, 0]>, <103, 18, 32, 14, 5, 0, 0, [0, 0, 0, 1, 1, 0]>, <104, 19, 33, 14, 5, 0, 0, [0, 0, 0, 1, 1, 0]>, <105, 20, 34, 14, 5, 0, 0, [0, 0, 0, 1, 1, 0]>, <106, 21, 35, 14, 5, 0, 0, [0, 0, 0, 1, 1, 0]>, <107, 0, 17, 17, 6, 0, 1, [0, 1, 1, 0, 0, 0]>, <108, 1, 18, 17, 6, 0, 1, [0, 1, 1, 0, 0, 0]>, <109, 2, 19, 17, 6, 0, 1, [0, 1, 1, 0, 0, 0]>, <110, 3, 20, 17, 6, 0, 1, [0, 1, 1, 0, 0, 0]>, <111, 4, 21, 17, 6, 0, 1, [0, 1, 1, 0, 0, 0]>, <112, 5, 22, 17, 6, 0, 1, [0, 1, 1, 0, 0, 0]>, <113, 6, 23, 17, 6, 0, 1, [0, 1, 1, 0, 0, 0]>, <114, 9, 26, 17, 6, 0, 1, [0, 1, 1, 0, 0, 0]>, <115, 10, 27, 17, 6, 0, 1, [0, 1, 1, 0, 0, 0]>, <116, 11, 28, 17, 6, 0, 1, [0, 1, 1, 0, 0, 0]>, <117, 12, 29, 17, 6, 0, 1, [0, 1, 1, 0, 0, 0]>, <118, 13, 30, 17, 6, 0, 1, [0, 1, 1, 0, 0, 0]>, <119, 14, 31, 17, 6, 0, 1, [0, 1, 1, 0, 0, 0]>, <120, 15, 32, 17, 6, 0, 1, [0, 1, 1, 0, 0, 0]>, <121, 16, 33, 17, 6, 0, 1, [0, 1, 1, 0, 0, 0]>, <122, 17, 34, 17, 6, 0, 1, [0, 1, 1, 0, 0, 0]>, <123, 18, 35, 17, 6, 0, 1, [0, 1, 1, 0, 0, 0]>, <124, 2, 17, 15, 7, 0, 0, [1, 1, 0, 0, 0, 0]>, <125, 3, 18, 15, 7, 0, 0, [1, 1, 0, 0, 0, 0]>, <126, 4, 19, 15, 7, 0, 0, [1, 1, 0, 0, 0, 0]>, <127, 5, 20, 15, 7, 0, 0, [1, 1, 0, 0, 0, 0]>, <128, 6, 21, 15, 7, 0, 0, [1, 1, 0, 0, 0, 0]>, <129, 11, 26, 15, 7, 0, 0, [1, 1, 0, 0, 0, 0]>, <130, 12, 27, 15, 7, 0, 0, [1, 1, 0, 0, 0, 0]>, <131, 13, 28, 15, 7, 0, 0, [1, 1, 0, 0, 0, 0]>, <132, 14, 29, 15, 7, 0, 0, [1, 1, 0, 0, 0, 0]>, <133, 15, 30, 15, 7, 0, 0, [1, 1, 0, 0, 0, 0]>, <134, 16, 31, 15, 7, 0, 0, [1, 1, 0, 0, 0, 0]>, <135, 17, 32, 15, 7, 0, 0, [1, 1, 0, 0, 0, 0]>, <136, 18, 33, 15, 7, 0, 0, [1, 1, 0, 0, 0, 0]>, <137, 19, 34, 15, 7, 0, 0, [1, 1, 0, 0, 0, 0]>, <138, 20, 35, 15, 7, 0, 0, [1, 1, 0, 0, 0, 0]>, <139, 4, 17, 13, 8, 1, 0, [0, 1, 1, 0, 0, 0]>, <140, 5, 18, 13, 8, 1, 0, [0, 1, 1, 0, 0, 0]>, <141, 6, 19, 13, 8, 1, 0, [0, 1, 1, 0, 0, 0]>, <142, 13, 26, 13, 8, 1, 0, [0, 1, 1, 0, 0, 0]>, <143, 14, 27, 13, 8, 1, 0, [0, 1, 1, 0, 0, 0]>, <144, 15, 28, 13, 8, 1, 0, [0, 1, 1, 0, 0, 0]>, <145, 18, 31, 13, 8, 1, 0, [0, 1, 1, 0, 0, 0]>, <146, 19, 32, 13, 8, 1, 0, [0, 1, 1, 0, 0, 0]>, <147, 20, 33, 13, 8, 1, 0, [0, 1, 1, 0, 0, 0]>, <148, 21, 34, 13, 8, 1, 0, [0, 1, 1, 0, 0, 0]>, <149, 22, 35, 13, 8, 1, 0, [0, 1, 1, 0, 0, 0]>, <150, 4, 17, 13, 9, 0, 1, [0, 1, 1, 0, 0, 0]>, <151, 5, 18, 13, 9, 0, 1, [0, 1, 1, 0, 0, 0]>, <152, 6, 19, 13, 9, 0, 1, [0, 1, 1, 0, 0, 0]>, <153, 13, 26, 13, 9, 0, 1, [0, 1, 1, 0, 0, 0]>, <154, 14, 27, 13, 9, 0, 1, [0, 1, 1, 0, 0, 0]>, <155, 15, 28, 13, 9, 0, 1, [0, 1, 1, 0, 0, 0]>, <156, 18, 31, 13, 9, 0, 1, [0, 1, 1, 0, 0, 0]>, <157, 19, 32, 13, 9, 0, 1, [0, 1, 1, 0, 0, 0]>, <158, 20, 33, 13, 9, 0, 1, [0, 1, 1, 0, 0, 0]>, <159, 21, 34, 13, 9, 0, 1, [0, 1, 1, 0, 0, 0]>, <160, 22, 35, 13, 9, 0, 1, [0, 1, 1, 0, 0, 0]>, <161, 4, 17, 13, 10, 0, 0, [1, 1, 0, 0, 0, 0]>, <162, 5, 18, 13, 10, 0, 0, [1, 1, 0, 0, 0, 0]>, <163, 6, 19, 13, 10, 0, 0, [1, 1, 0, 0, 0, 0]>, <164, 13, 26, 13, 10, 0, 0, [1, 1, 0, 0, 0, 0]>, <165, 14, 27, 13, 10, 0, 0, [1, 1, 0, 0, 0, 0]>, <166, 15, 28, 13, 10, 0, 0, [1, 1, 0, 0, 0, 0]>, <167, 18, 31, 13, 10, 0, 0, [1, 1, 0, 0, 0, 0]>, <168, 19, 32, 13, 10, 0, 0, [1, 1, 0, 0, 0, 0]>, <169, 20, 33, 13, 10, 0, 0, [1, 1, 0, 0, 0, 0]>, <170, 21, 34, 13, 10, 0, 0, [1, 1, 0, 0, 0, 0]>, <171, 22, 35, 13, 10, 0, 0, [1, 1, 0, 0, 0, 0]>, <172, 0, 17, 17, 11, 0, 0, [0, 0, 0, 0, 1, 1]>, <173, 1, 18, 17, 11, 0, 0, [0, 0, 0, 0, 1, 1]>, <174, 2, 19, 17, 11, 0, 0, [0, 0, 0, 0, 1, 1]>, <175, 3, 20, 17, 11, 0, 0, [0, 0, 0, 0, 1, 1]>, <176, 4, 21, 17, 11, 0, 0, [0, 0, 0, 0, 1, 1]>, <177, 5, 22, 17, 11, 0, 0, [0, 0, 0, 0, 1, 1]>, <178, 6, 23, 17, 11, 0, 0, [0, 0, 0, 0, 1, 1]>, <179, 9, 26, 17, 11, 0, 0, [0, 0, 0, 0, 1, 1]>, <180, 10, 27, 17, 11, 0, 0, [0, 0, 0, 0, 1, 1]>, <181, 11, 28, 17, 11, 0, 0, [0, 0, 0, 0, 1, 1]>, <182, 12, 29, 17, 11, 0, 0, [0, 0, 0, 0, 1, 1]>, <183, 13, 30, 17, 11, 0, 0, [0, 0, 0, 0, 1, 1]>, <184, 14, 31, 17, 11, 0, 0, [0, 0, 0, 0, 1, 1]>, <185, 15, 32, 17, 11, 0, 0, [0, 0, 0, 0, 1, 1]>, <186, 16, 33, 17, 11, 0, 0, [0, 0, 0, 0, 1, 1]>, <187, 17, 34, 17, 11, 0, 0, [0, 0, 0, 0, 1, 1]>, <188, 18, 35, 17, 11, 0, 0, [0, 0, 0, 0, 1, 1]>, <189, 3, 17, 14, 12, 0, 1, [0, 0, 1, 1, 0, 0]>, <190, 4, 18, 14, 12, 0, 1, [0, 0, 1, 1, 0, 0]>, <191, 5, 19, 14, 12, 0, 1, [0, 0, 1, 1, 0, 0]>, <192, 6, 20, 14, 12, 0, 1, [0, 0, 1, 1, 0, 0]>, <193, 12, 26, 14, 12, 0, 1, [0, 0, 1, 1, 0, 0]>, <194, 13, 27, 14, 12, 0, 1, [0, 0, 1, 1, 0, 0]>, <195, 14, 28, 14, 12, 0, 1, [0, 0, 1, 1, 0, 0]>, <196, 15, 29, 14, 12, 0, 1, [0, 0, 1, 1, 0, 0]>, <197, 17, 31, 14, 12, 0, 1, [0, 0, 1, 1, 0, 0]>, <198, 18, 32, 14, 12, 0, 1, [0, 0, 1, 1, 0, 0]>, <199, 19, 33, 14, 12, 0, 1, [0, 0, 1, 1, 0, 0]>, <200, 20, 34, 14, 12, 0, 1, [0, 0, 1, 1, 0, 0]>, <201, 21, 35, 14, 12, 0, 1, [0, 0, 1, 1, 0, 0]>, <202, 4, 17, 13, 13, 0, 0, [0, 0, 0, 1, 1, 0]>, <203, 5, 18, 13, 13, 0, 0, [0, 0, 0, 1, 1, 0]>, <204, 6, 19, 13, 13, 0, 0, [0, 0, 0, 1, 1, 0]>, <205, 13, 26, 13, 13, 0, 0, [0, 0, 0, 1, 1, 0]>, <206, 14, 27, 13, 13, 0, 0, [0, 0, 0, 1, 1, 0]>, <207, 15, 28, 13, 13, 0, 0, [0, 0, 0, 1, 1, 0]>, <208, 18, 31, 13, 13, 0, 0, [0, 0, 0, 1, 1, 0]>, <209, 19, 32, 13, 13, 0, 0, [0, 0, 0, 1, 1, 0]>, <210, 20, 33, 13, 13, 0, 0, [0, 0, 0, 1, 1, 0]>, <211, 21, 34, 13, 13, 0, 0, [0, 0, 0, 1, 1, 0]>, <212, 22, 35, 13, 13, 0, 0, [0, 0, 0, 1, 1, 0]>, <213, 0, 18, 18, 14, 0, 1, [0, 1, 1, 0, 0, 0]>, <214, 1, 19, 18, 14, 0, 1, [0, 1, 1, 0, 0, 0]>, <215, 2, 20, 18, 14, 0, 1, [0, 1, 1, 0, 0, 0]>, <216, 3, 21, 18, 14, 0, 1, [0, 1, 1, 0, 0, 0]>, <217, 4, 22, 18, 14, 0, 1, [0, 1, 1, 0, 0, 0]>, <218, 5, 23, 18, 14, 0, 1, [0, 1, 1, 0, 0, 0]>, <219, 6, 24, 18, 14, 0, 1, [0, 1, 1, 0, 0, 0]>, <220, 8, 26, 18, 14, 0, 1, [0, 1, 1, 0, 0, 0]>, <221, 9, 27, 18, 14, 0, 1, [0, 1, 1, 0, 0, 0]>, <222, 10, 28, 18, 14, 0, 1, [0, 1, 1, 0, 0, 0]>, <223, 11, 29, 18, 14, 0, 1, [0, 1, 1, 0, 0, 0]>, <224, 12, 30, 18, 14, 0, 1, [0, 1, 1, 0, 0, 0]>, <225, 13, 31, 18, 14, 0, 1, [0, 1, 1, 0, 0, 0]>, <226, 14, 32, 18, 14, 0, 1, [0, 1, 1, 0, 0, 0]>, <227, 15, 33, 18, 14, 0, 1, [0, 1, 1, 0, 0, 0]>, <228, 16, 34, 18, 14, 0, 1, [0, 1, 1, 0, 0, 0]>, <229, 17, 35, 18, 14, 0, 1, [0, 1, 1, 0, 0, 0]>};
